c description: Random 3-CNF over 18 variables and 77 clauses
c generator: CNFgen (0.9.2)
c copyright: (C) 2012-2022 Massimo Lauria <massimo.lauria@uniroma1.it>
c url: https://massimolauria.net/cnfgen
c command line: cnfgen --output CNF_4.28/18_bit_77_540.cnf randkcnf 3 18 77
c
p cnf 18 77
6 -9 -16 0
2 -3 -6 0
2 -4 15 0
-6 12 -14 0
15 17 -18 0
2 -5 -17 0
1 9 13 0
-4 12 14 0
-2 -10 -18 0
1 2 -9 0
5 10 14 0
-4 6 -12 0
-2 7 12 0
11 -13 17 0
6 8 -15 0
-13 16 -18 0
-3 4 8 0
-7 -12 15 0
-3 -5 15 0
2 -5 -15 0
-2 -8 -10 0
-2 -3 -14 0
7 12 -15 0
5 8 12 0
1 -3 -5 0
13 17 18 0
5 11 16 0
8 -11 16 0
2 -15 17 0
-3 14 -16 0
5 6 -16 0
2 9 -17 0
-2 13 14 0
-8 16 -17 0
-2 4 5 0
14 16 -18 0
-2 -11 16 0
-2 5 18 0
-11 12 -14 0
-1 -9 -10 0
-3 -10 -13 0
5 10 11 0
-9 12 15 0
6 -12 13 0
-10 -12 -15 0
7 -8 -9 0
-2 5 -15 0
1 -2 5 0
5 6 -7 0
4 -9 12 0
2 -9 -16 0
-11 -12 13 0
4 -7 -15 0
-3 8 -12 0
-6 9 -14 0
4 6 -16 0
5 12 14 0
4 -14 15 0
3 4 9 0
-2 5 11 0
1 3 -10 0
-2 9 11 0
-10 15 17 0
-1 5 -15 0
7 9 -10 0
2 -11 -16 0
-1 3 -5 0
2 -13 -18 0
6 8 -16 0
-1 -12 -15 0
-1 -10 -14 0
5 -12 -17 0
7 -8 18 0
-3 5 -7 0
4 7 -18 0
9 13 -15 0
5 -10 14 0
